Cr S Br                                 
  1.000000000     
     3.5310201280000000   -0.0000000000000000    0.0000000000000000
     0.0000000000000000    4.6905387310000000    0.0000000000000000
     0.0000000000000000    0.0000000000000000    15.929940140000000
   Cr   S    Br
     4     4     4
Cartesian
2.6482651  1.1726347  1.77704974
0.8827550  3.5179040  3.83387099
2.6482651  1.1726347  9.74201981
0.8827550  3.5179040  11.79884106
2.6482651  3.5179040  2.23366521
0.8827550  1.1726347  3.37725552
2.6482651  3.5179040  10.19863528
0.8827550  1.1726347  11.34222559
0.8827550  1.1726347  0.00000000
2.6482651  3.5179040  5.61092073
0.8827550  1.1726347  7.96497007
2.6482651  3.5179040  13.57589080
