&CONTROL
  calculation='relax',
  prefix='fe'
  outdir='./tmp',
  pseudo_dir='/home/jojaibal/pseudopotentials',
  verbosity='low',
/

&SYSTEM
  ibrav = 0,
  nat=52,
  ntyp=3,
  ecutwfc=75.0d0,
  ecutrho=800.0d0,
  occupations='smearing',
  smearing='mp',
  degauss=0.02,
  nspin = 2
  starting_magnetization(1)=0.5,
  !lda_plus_u=.true., Hubbard_U(1)=7.5681,
/

&ELECTRONS
  diagonalization='david',
  conv_thr=1d-06,
  mixing_mode='local-TF',
  mixing_beta=0.7D0,
  electron_maxstep=1000,
/

&IONS
/

ATOMIC_SPECIES
  Fe   55.84500  Fe.pbe-spn-kjpaw_psl.0.2.1.UPF
  Nb   92.90638  Nb.pbe-spn-kjpaw_psl.1.0.0.UPF
  Se   78.96000  Se.pbe-n-kjpaw_psl.1.0.0.UPF

CELL_PARAMETERS (angstrom)
13.7841709588  0.00000000  0.00000000
-6.8920854790  11.93744222  0.0000000
0.00000000000  0.000000000  23.63142987

  
ATOMIC_POSITIONS (crystal)
Fe       0.333333333   0.666666667   0.160582805
Fe       0.580000000   0.666666667   0.160582805
Fe       0.830000000   0.666666667   0.160582805
Fe       0.080000000   0.666666667   0.160582805
Nb       0.000000000   0.000000000   0.071164120
Se       0.167167586   0.083583793   0.000169126
Se       0.166441163   0.083220581   0.142630536
Nb       0.252449747   0.001127037   0.071745961
Se       0.416213927   0.082447016  -0.001140266
Se       0.418295633   0.088478502   0.142581038
Nb       0.503134824   0.006269648   0.071404178
Se       0.666233091   0.082447016  -0.001140266
Se       0.670182870   0.088478502   0.142581038
Nb       0.748677290   0.001127037   0.071745961
Se       0.916416207   0.083583793   0.000169126
Se       0.916779419   0.083220581   0.142630536
Nb       0.748026702   0.251973298   0.069360333
Se       0.917552984   0.333766909  -0.001140266
Se       0.911521498   0.329817130   0.142581038
Nb       0.748026702   0.496053402   0.069360333
Se       0.917552984   0.583786073  -0.001140266
Se       0.911521498   0.581704367   0.142581038
Nb       0.748677290   0.747550253   0.071745961
Se       0.916416207   0.832832414   0.000169126
Se       0.916779419   0.833558837   0.142630536
Nb       0.500684625   0.750342312   0.077915192
Se       0.663412824   0.831706411   0.002710631
Se       0.671595617   0.835797807   0.144890497
Nb       0.249657688   0.750342312   0.077915192
Se       0.415514183   0.831028365   0.005840146
Se       0.427860785   0.855721570   0.150198591
Nb      -0.001127037   0.747550253   0.071745961
Se       0.168293589   0.831706411   0.002710631
Se       0.164202193   0.835797807   0.144890497
Nb       0.503946598   0.251973298   0.069360333
Se       0.666666667   0.333333333  -0.003752211
Se       0.666666667   0.333333333   0.142449616
Nb       0.503134824   0.496865176   0.071404178
Se       0.666233091   0.583786073  -0.001140266
Se       0.670182870   0.581704367   0.142581038
Nb       0.249657688   0.499315375   0.077915192
Se       0.415514183   0.584485817   0.005840146
Se       0.427860785   0.572139215   0.150198591
Nb       0.252449747   0.251322710   0.071745961
Se       0.416213927   0.333766909  -0.001140266
Se       0.418295633   0.329817130   0.142581038
Nb      -0.001127037   0.251322710   0.071745961
Se       0.168293589   0.336587176   0.002710631
Se       0.164202193   0.328404383   0.144890497
Nb      -0.006269648   0.496865176   0.071404178
Se       0.168971635   0.584485817   0.005840146
Se       0.144278430   0.572139215   0.150198591

K_POINTS {automatic}
3 3 1 0 0 0

