&CONTROL
   calculation='vc-relax'
  ! restart_mode='restart',
   prefix='cri3'
   outdir='./tmp',
   pseudo_dir='/u/jojaibal/QuantumEspresso/pseudopotentials/rrkjus/',
   verbosity='low'
   tstress=.true.
   tprnfor=.true.
   max_seconds=14000
/
 
&SYSTEM
   ibrav=0,
   a = 6.867,
   nat=8,
   ntyp=2,
   ecutwfc=50,
   ecutrho=460
   occupations='smearing',
   smearing='gaussian',
   degauss=0.001d0,
   nspin = 2,
   starting_magnetization(1) = 3.0,
   lda_plus_u = .true.,lda_plus_u_kind = 0,U_projection_type = 'atomic',Hubbard_U(1) = 4.2687,
/
 
&ELECTRONS
   diagonalization='david',
   conv_thr =  1.d-07,
   mixing_mode='local-TF',
   mixing_beta=0.3D0,
/

&IONS
/

&CELL
  cell_dofree='2Dxy',
/
 
ATOMIC_SPECIES
  Cr   51.996 Cr.pbe-spn-rrkjus_psl.1.0.0.UPF
  I   126.904 I.pbe-n-rrkjus_psl.1.0.0.UPF
 
CELL_PARAMETERS (alat)
   1.018190390  -0.000000000   0.000000000
  -0.509095195   0.881778744   0.000000000
   0.000000000   0.000000000   3.058103976

ATOMIC_POSITIONS (crystal)
Cr       0.333333330   0.666666670   0.314398333
Cr       0.000000000   0.000000000   0.314398333
I        0.025181843   0.333333330   0.239620825
I        0.666666670   0.691848513   0.239620825
I        0.308151487  -0.025181843   0.239620825
I        0.308153558   0.333333330   0.389171930
I        0.666666670  -0.025179772   0.389171930
I        0.025179772   0.691846442   0.389171930 
K_POINTS {automatic}
 6 6 1 0 0 0
