&CONTROL
  calculation='relax',
  prefix='adatom'
  outdir='./tmp',
  pseudo_dir='/u/jojaibal/QuantumEspresso/pseudopotentials',
  verbosity='low',
  tstress=.true.,
  tprnfor=.true.,
  nstep=200
/

&SYSTEM
  ibrav = 4, a=13.7841709588d0, c=23.63142987d0
  nat=49,
  ntyp=3,
  ecutwfc=75.0d0,
  ecutrho=800.0d0,
  occupations='smearing',
  smearing='mp',
  degauss=0.02,
  nspin=2,
  starting_magnetization(1)=0.5,
 !lda_plus_u=.true.,
 !Hubbard_U(1)=7.5681,
 ! vdw_corr='grimme-d2'
/

&ELECTRONS
  diagonalization='david',
  conv_thr=1d-07,
  mixing_mode='local-TF',
  mixing_beta=0.7D0,
  electron_maxstep=1000,
/

&IONS
/

&CELL
/

ATOMIC_SPECIES
  Fe   55.84500  Fe.pbe-spn-kjpaw_psl.0.2.1.UPF
  Nb   92.90638  Nb.pbe-spn-kjpaw_psl.1.0.0.UPF
  Se   78.96000  Se.pbe-n-kjpaw_psl.1.0.0.UPF
  
ATOMIC_POSITIONS (crystal)
Fe       0.333333333   0.666666667   0.226527805
Nb       0.000000000   0.000000000   0.070971731
Se       0.166700828   0.083350414  -0.000877653
Se       0.166840230   0.083420114   0.142764480
Nb       0.250363634   0.000116619   0.070926360
Se       0.416835886   0.083144643  -0.000802032
Se       0.416767649   0.083744427   0.142745749
Nb       0.500345751   0.000691503   0.071521409
Se       0.666308758   0.083144643  -0.000802032
Se       0.666976778   0.083744427   0.142745749
Nb       0.749752985   0.000116619   0.070926360
Se       0.916649586   0.083350414  -0.000877653
Se       0.916579886   0.083420114   0.142764480
Nb       0.749864517   0.250135483   0.071081860
Se       0.916855357   0.333691242  -0.000802032
Se       0.916255573   0.333023222   0.142745749
Nb       0.749864517   0.499729034   0.071081860
Se       0.916855357   0.583164114  -0.000802032
Se       0.916255573   0.583232351   0.142745749
Nb       0.749752985   0.749636366   0.070926360
Se       0.916649586   0.833299172  -0.000877653
Se       0.916579886   0.833159770   0.142764480
Nb       0.501329679   0.750664839   0.071152447
Se       0.666374859   0.833187429  -0.000707091
Se       0.666787770   0.833393884   0.142831902
Nb       0.249335161   0.750664839   0.071152447
Se       0.416623729   0.833247458  -0.000472076
Se       0.414585049   0.829170096   0.145426544
Nb      -0.000116619   0.749636366   0.070926360
Se       0.166812571   0.833187429  -0.000707091
Se       0.166606116   0.833393884   0.142831902
Nb       0.500270966   0.250135483   0.071081860
Se       0.666666667   0.333333333  -0.000743327
Se       0.666666667   0.333333333   0.142780284
Nb       0.500345751   0.499654249   0.071521409
Se       0.666308758   0.583164114  -0.000802032
Se       0.666976778   0.583232351   0.142745749
Nb       0.249335161   0.498670321   0.071152447
Se       0.416623729   0.583376271  -0.000472076
Se       0.414585049   0.585414951   0.145426544
Nb       0.250363634   0.250247015   0.070926360
Se       0.416835886   0.333691242  -0.000802032
Se       0.416767649   0.333023222   0.142745749
Nb      -0.000116619   0.250247015   0.070926360
Se       0.166812571   0.333625141  -0.000707091
Se       0.166606116   0.333212230   0.142831902
Nb      -0.000691503   0.499654249   0.071521409
Se       0.166752542   0.583376271  -0.000472076
Se       0.170829904   0.585414951   0.145426544

K_POINTS {automatic}
6 6 1 0 0 0

