Cr S Br                                 
  1.000000000     
3.53102013 -0.00000000 0.00000000
0.00000000 4.69053873 0.00000000
0.00000000 0.00000000 38.92994014
   Cr   S    Br
     4     4     4
Cartesian
2.64826510 1.17263470 1.77704974
0.88275500 3.51790400 3.83387099
2.64826510 1.17263470 32.74201981
0.88275500 3.51790400 34.79884106
2.64826510 3.51790400 2.23366521
0.88275500 1.17263470 3.37725552
2.64826510 3.51790400 33.19863528
0.88275500 1.17263470 34.34222559
0.88275500 1.17263470 0.00000000
2.64826510 3.51790400 5.61092073
0.88275500 1.17263470 30.96497007
2.64826510 3.51790400 36.57589080
