Automatic generation
0
G
11    9    2
0.0   0.0   0.0
